100
2
4,20,17,1,41,25,33,11,37,36,16,36,36,9,27,12,14,37,42,43,10,36,23,34,12
98,93,86,4,100,55,63,83,65,62,90,46,35,23,5,71,77,16,34,13,73,12,17,59,51
1,1,1,1,2,2,1,1,2,1,2,1,1,1,2,2,1,1,1,2,2,1,2,1,2
